\ Model multiRobot
\ LP format - for model browsing. Use MPS format to capture full model detail.
Minimize
  setSlower + 0 F(1)(1) + 0 F(1)(4) + 0 F(2)(2) + 0 F(2)(3) + 0 F(3)(2)
   + 0 F(3)(3) + 0 F(4)(1) + 0 F(4)(4) + 0 y(1)(1)(1) + 0 y(1)(1)(2)
   + 0 y(1)(4)(1) + 0 y(1)(4)(2) + 0 y(2)(2)(1) + 0 y(2)(2)(2)
   + 0 y(2)(3)(1) + 0 y(2)(3)(2) + 0 y(3)(2)(1) + 0 y(3)(2)(2)
   + 0 y(3)(3)(1) + 0 y(3)(3)(2) + 0 y(4)(1)(1) + 0 y(4)(1)(2)
   + 0 y(4)(4)(1) + 0 y(4)(4)(2)
Subject To
 constr(0): 10 x(1)(1) + 6 x(2)(1) + 7 x(3)(1) + 5 x(4)(1) - setSlower
   <= 0
 constr(1): 10 x(1)(2) + 6 x(2)(2) + 7 x(3)(2) + 5 x(4)(2) - setSlower
   <= 0
 constr(2): x(1)(1) + x(1)(2) = 1
 constr(3): x(2)(1) + x(2)(2) = 1
 constr(4): x(3)(1) + x(3)(2) = 1
 constr(5): x(4)(1) + x(4)(2) = 1
 constr(6): - x(1)(1) + r(1)(1) <= 0
 constr(7): - x(1)(2) + r(1)(2) <= 0
 constr(8): - x(2)(1) + r(2)(1) <= 0
 constr(9): - x(2)(2) + r(2)(2) <= 0
 constr(10): - x(3)(1) + r(3)(1) <= 0
 constr(11): - x(3)(2) + r(3)(2) <= 0
 constr(12): - x(4)(1) + r(4)(1) <= 0
 constr(13): - x(4)(2) + r(4)(2) <= 0
 constr(14): r(1)(1) + r(2)(1) + r(3)(1) + r(4)(1) = 1
 constr(15): r(1)(2) + r(2)(2) + r(3)(2) + r(4)(2) = 1
 constr(16): x(1)(1) + 4 r(1)(1) <= 5
 constr(17): x(1)(2) + 4 r(1)(2) <= 5
 constr(18): x(1)(1) + x(2)(1) + 4 r(2)(1) <= 5
 constr(19): x(1)(2) + x(2)(2) + 4 r(2)(2) <= 5
 constr(20): x(1)(1) + x(2)(1) + x(3)(1) + 4 r(3)(1) <= 5
 constr(21): x(1)(2) + x(2)(2) + x(3)(2) + 4 r(3)(2) <= 5
 constr(22): x(1)(1) + x(2)(1) + x(3)(1) + x(4)(1) + 4 r(4)(1) <= 5
 constr(23): x(1)(2) + x(2)(2) + x(3)(2) + x(4)(2) + 4 r(4)(2) <= 5
 constr(24): - 4 r(1)(1) - 4 r(1)(2) + F(5)(1) <= 0
 constr(25): - 4 r(2)(1) - 4 r(2)(2) + F(5)(2) <= 0
 constr(26): - 4 r(3)(1) - 4 r(3)(2) + F(5)(3) <= 0
 constr(27): - 4 r(4)(1) - 4 r(4)(2) + F(5)(4) <= 0
 constr(28): F(5)(1) + F(5)(2) + F(5)(3) + F(5)(4) = 4
 constr(29): - F(1)(2) - F(1)(3) + F(2)(1) + F(3)(1) + F(5)(1) = 1
 constr(30): F(1)(2) - F(2)(1) - F(2)(4) + F(4)(2) + F(5)(2) = 1
 constr(31): F(1)(3) - F(3)(1) - F(3)(4) + F(4)(3) + F(5)(3) = 1
 constr(32): F(2)(4) + F(3)(4) - F(4)(2) - F(4)(3) + F(5)(4) = 1
 constr(33): F(1)(2) - 4 y(1)(2)(1) - 4 y(1)(2)(2) <= 0
 constr(34): - x(1)(1) + y(1)(2)(1) <= 0
 constr(35): - x(2)(1) + y(1)(2)(1) <= 0
 constr(36): y(1)(2)(1) >= 0
 constr(37): - x(1)(1) - x(2)(1) + y(1)(2)(1) >= -1
 constr(38): - x(1)(2) + y(1)(2)(2) <= 0
 constr(39): - x(2)(2) + y(1)(2)(2) <= 0
 constr(40): y(1)(2)(2) >= 0
 constr(41): - x(1)(2) - x(2)(2) + y(1)(2)(2) >= -1
 constr(42): F(1)(3) - 4 y(1)(3)(1) - 4 y(1)(3)(2) <= 0
 constr(43): - x(1)(1) + y(1)(3)(1) <= 0
 constr(44): - x(3)(1) + y(1)(3)(1) <= 0
 constr(45): y(1)(3)(1) >= 0
 constr(46): - x(1)(1) - x(3)(1) + y(1)(3)(1) >= -1
 constr(47): - x(1)(2) + y(1)(3)(2) <= 0
 constr(48): - x(3)(2) + y(1)(3)(2) <= 0
 constr(49): y(1)(3)(2) >= 0
 constr(50): - x(1)(2) - x(3)(2) + y(1)(3)(2) >= -1
 constr(51): F(2)(1) - 4 y(2)(1)(1) - 4 y(2)(1)(2) <= 0
 constr(52): - x(2)(1) + y(2)(1)(1) <= 0
 constr(53): - x(1)(1) + y(2)(1)(1) <= 0
 constr(54): y(2)(1)(1) >= 0
 constr(55): - x(1)(1) - x(2)(1) + y(2)(1)(1) >= -1
 constr(56): - x(2)(2) + y(2)(1)(2) <= 0
 constr(57): - x(1)(2) + y(2)(1)(2) <= 0
 constr(58): y(2)(1)(2) >= 0
 constr(59): - x(1)(2) - x(2)(2) + y(2)(1)(2) >= -1
 constr(60): F(2)(4) - 4 y(2)(4)(1) - 4 y(2)(4)(2) <= 0
 constr(61): - x(2)(1) + y(2)(4)(1) <= 0
 constr(62): - x(4)(1) + y(2)(4)(1) <= 0
 constr(63): y(2)(4)(1) >= 0
 constr(64): - x(2)(1) - x(4)(1) + y(2)(4)(1) >= -1
 constr(65): - x(2)(2) + y(2)(4)(2) <= 0
 constr(66): - x(4)(2) + y(2)(4)(2) <= 0
 constr(67): y(2)(4)(2) >= 0
 constr(68): - x(2)(2) - x(4)(2) + y(2)(4)(2) >= -1
 constr(69): F(3)(1) - 4 y(3)(1)(1) - 4 y(3)(1)(2) <= 0
 constr(70): - x(3)(1) + y(3)(1)(1) <= 0
 constr(71): - x(1)(1) + y(3)(1)(1) <= 0
 constr(72): y(3)(1)(1) >= 0
 constr(73): - x(1)(1) - x(3)(1) + y(3)(1)(1) >= -1
 constr(74): - x(3)(2) + y(3)(1)(2) <= 0
 constr(75): - x(1)(2) + y(3)(1)(2) <= 0
 constr(76): y(3)(1)(2) >= 0
 constr(77): - x(1)(2) - x(3)(2) + y(3)(1)(2) >= -1
 constr(78): F(3)(4) - 4 y(3)(4)(1) - 4 y(3)(4)(2) <= 0
 constr(79): - x(3)(1) + y(3)(4)(1) <= 0
 constr(80): - x(4)(1) + y(3)(4)(1) <= 0
 constr(81): y(3)(4)(1) >= 0
 constr(82): - x(3)(1) - x(4)(1) + y(3)(4)(1) >= -1
 constr(83): - x(3)(2) + y(3)(4)(2) <= 0
 constr(84): - x(4)(2) + y(3)(4)(2) <= 0
 constr(85): y(3)(4)(2) >= 0
 constr(86): - x(3)(2) - x(4)(2) + y(3)(4)(2) >= -1
 constr(87): F(4)(2) - 4 y(4)(2)(1) - 4 y(4)(2)(2) <= 0
 constr(88): - x(4)(1) + y(4)(2)(1) <= 0
 constr(89): - x(2)(1) + y(4)(2)(1) <= 0
 constr(90): y(4)(2)(1) >= 0
 constr(91): - x(2)(1) - x(4)(1) + y(4)(2)(1) >= -1
 constr(92): - x(4)(2) + y(4)(2)(2) <= 0
 constr(93): - x(2)(2) + y(4)(2)(2) <= 0
 constr(94): y(4)(2)(2) >= 0
 constr(95): - x(2)(2) - x(4)(2) + y(4)(2)(2) >= -1
 constr(96): F(4)(3) - 4 y(4)(3)(1) - 4 y(4)(3)(2) <= 0
 constr(97): - x(4)(1) + y(4)(3)(1) <= 0
 constr(98): - x(3)(1) + y(4)(3)(1) <= 0
 constr(99): y(4)(3)(1) >= 0
 constr(100): - x(3)(1) - x(4)(1) + y(4)(3)(1) >= -1
 constr(101): - x(4)(2) + y(4)(3)(2) <= 0
 constr(102): - x(3)(2) + y(4)(3)(2) <= 0
 constr(103): y(4)(3)(2) >= 0
 constr(104): - x(3)(2) - x(4)(2) + y(4)(3)(2) >= -1
Bounds
Binaries
 x(1)(1) x(1)(2) x(2)(1) x(2)(2) x(3)(1) x(3)(2) x(4)(1) x(4)(2) r(1)(1)
 r(1)(2) r(2)(1) r(2)(2) r(3)(1) r(3)(2) r(4)(1) r(4)(2) y(1)(1)(1)
 y(1)(1)(2) y(1)(2)(1) y(1)(2)(2) y(1)(3)(1) y(1)(3)(2) y(1)(4)(1)
 y(1)(4)(2) y(2)(1)(1) y(2)(1)(2) y(2)(2)(1) y(2)(2)(2) y(2)(3)(1)
 y(2)(3)(2) y(2)(4)(1) y(2)(4)(2) y(3)(1)(1) y(3)(1)(2) y(3)(2)(1)
 y(3)(2)(2) y(3)(3)(1) y(3)(3)(2) y(3)(4)(1) y(3)(4)(2) y(4)(1)(1)
 y(4)(1)(2) y(4)(2)(1) y(4)(2)(2) y(4)(3)(1) y(4)(3)(2) y(4)(4)(1)
 y(4)(4)(2)
Generals
 F(1)(1) F(1)(2) F(1)(3) F(1)(4) F(2)(1) F(2)(2) F(2)(3) F(2)(4) F(3)(1)
 F(3)(2) F(3)(3) F(3)(4) F(4)(1) F(4)(2) F(4)(3) F(4)(4) F(5)(1) F(5)(2)
 F(5)(3) F(5)(4)
End
